<number of tasks>
50

<cycle time>
1000

<order strength>
0.896


<task times>
1 441
2 344
3 571
4 672
5 539
6 481
7 469
8 513
9 394
10 371
11 556
12 501
13 417
14 484
15 215
16 580
17 602
18 553
19 472
20 299
21 484
22 493
23 610
24 525
25 503
26 357
27 453
28 537
29 408
30 618
31 427
32 503
33 577
34 589
35 447
36 666
37 389
38 569
39 589
40 514
41 356
42 580
43 589
44 387
45 509
46 606
47 484
48 479
49 503
50 388

<precedence relations>
1,3
1,4
1,5
2,3
2,4
2,5
3,6
3,7
3,8
3,9
4,6
4,7
4,8
4,9
5,6
5,7
5,8
5,9
6,10
6,11
6,12
7,10
7,11
7,12
8,10
8,11
8,12
9,10
9,11
9,12
10,13
10,14
10,15
11,13
11,14
11,15
12,13
12,14
12,15
13,16
13,17
14,16
14,17
15,16
15,17
16,18
16,19
17,18
17,19
18,20
18,21
18,22
18,23
19,20
19,21
19,22
19,23
20,24
20,25
21,24
21,25
22,24
22,25
23,24
23,25
24,26
24,27
24,28
25,26
25,27
25,28
26,29
26,39
27,30
27,32
28,29
28,30
28,31
29,35
29,37
30,45
30,46
31,33
31,35
32,34
32,35
32,39
33,36
33,38
33,39
34,37
34,45
35,36
35,38
36,42
36,45
38,41
39,40
39,41
40,43
40,44
41,43
41,44
42,49
44,45
44,46
45,47
45,48
46,47
47,49
47,50

<end>
